Please solve the following SAT Problem encoded in DIMACS format, provide line of thoughts, write your final answer as a single solution at the end of response with header 'answer: ' : 
p cnf 10 55
1 9 2 0
3 2 -8 0
8 -6 -10 0
5 -7 2 0
-6 8 3 0
-6 1 -7 0
-7 5 9 0
5 9 2 0
3 8 7 0
9 2 3 0
9 6 -4 0
-4 -3 9 0
5 2 1 0
-10 -4 9 0
-7 8 -10 0
-7 5 9 0
-3 2 -4 0
-6 -7 -4 0
-9 -4 -7 0
5 1 -6 0
9 -6 2 0
1 8 -4 0
-7 2 -6 0
-9 -7 2 0
5 -1 3 0
2 -6 1 0
1 3 -7 0
8 -4 -10 0
2 9 -3 0
7 -4 5 0
-6 2 5 0
3 -6 8 0
-6 -1 5 0
-7 -3 -10 0
-6 -7 -2 0
-6 -7 -4 0
8 -6 7 0
2 -8 -6 0
-7 -2 -4 0
6 8 5 0
-4 8 3 0
-4 -10 8 0
1 -6 3 0
9 -10 -6 0
8 -4 5 0
9 1 -5 0
5 8 3 0
-10 -5 8 0
8 -7 3 0
-6 7 8 0
9 5 1 0
-6 9 -3 0
8 3 -5 0
-1 -4 -7 0
-7 5 -6 0

